(set-logic ALL)
(declare-const k Int)
(declare-fun s () (_ BitVec k))
(declare-fun t () (_ BitVec k))
(assert (distinct (bvand s (bvlshr (_ bv0 k) (bvnot t))) (bvand s (bvudiv t (bvnot (_ bv0 k))))))
(check-sat)
